38
29
0 29 31 32 33 34 35 36 37
1 29 32 35 37
2 30
3 29 32 33 34 37
4 29 30 33 34
5 34 36 37
6 29 33 37
7 30 32 33 36 37
8 29 32 33 34
9 37
10 29 33 36 37
11 33 34
12 29 32 34 37
13 29 33 35 36
14 30 33
15 33 34
16 29 30 33 37
17 33
18 34 37
19 29 30 32 33 34 37
20 32
21 30 33 34
22 30 32
23 29 30 34
24 31 32
25 31
26
27
28
